Route #1: 29 30 33 49 61 6
Route #2: 14 56 17 41 4 32
Route #3: 24 12 18 44 25 15 59 13 55 42 47
Route #4: 45 5 50 57 60
Route #5: 9 31 16 48 10 63 3
Route #6: 53 22 52 34 27 36 7
Route #7: 38 11 62 43 40 20 35
Route #8: 19 51 2 28 8 37 21
Route #9: 23 26 58 39 54
Route #10: 46
cost 1701
